NPROCS=0
This instance is clustered!
Gurobi Optimizer version 9.0.0 build v9.0.0rc2 (linux64)
Optimize a model with 38 rows, 362 columns and 722 nonzeros
Model fingerprint: 0x2ccdcbf5
Variable types: 1 continuous, 361 integer (361 binary)
Coefficient statistics:
  Matrix range     [1e+00, 1e+00]
  Objective range  [1e+00, 3e+02]
  Bounds range     [1e+00, 1e+00]
  RHS range        [1e+00, 1e+00]
Presolve removed 2 rows and 54 columns
Presolve time: 0.00s
Presolved: 36 rows, 308 columns, 614 nonzeros
Variable types: 1 continuous, 307 integer (307 binary)

Root relaxation: objective 5.180861e+02, 35 iterations, 0.00 seconds

    Nodes    |    Current Node    |     Objective Bounds      |     Work
 Expl Unexpl |  Obj  Depth IntInf | Incumbent    BestBd   Gap | It/Node Time

     0     0  559.53339    0   12          -  559.53339      -     -    0s
     0     0  574.56514    0   22          -  574.56514      -     -    0s
     0     0  588.42660    0   30          -  588.42660      -     -    0s
 done with super cut 0
     0     0  610.72185    0   33          -  610.72185      -     -    0s
 done with super cut 1
 done with super cut 2
H    0     0                    1024.0627615  610.72185  40.4%     -    3s
 done with super cut 3
     0     2  618.54991    0   34 1024.06276  618.54991  39.6%     -    5s
 done with super cut 4
 done with super cut 5
 done with super cut 6
 done with super cut 7
 done with super cut 8
    47    37  655.62937    6   41 1024.06276  641.95526  37.3%   7.0   17s
 done with super cut 9
 done with super cut 10
    97    87  737.86725    8   30 1024.06276  653.59382  36.2%   6.6   26s
*  129   106               8     894.2708652  653.59382  26.9%   6.5   26s
*  225   189              18     879.5676508  653.59382  25.7%   5.7   26s
*  418   293              23     839.3574222  655.78596  21.9%   5.7   26s
* 1160   729              29     799.3263088  688.67396  13.8%   5.5   26s
* 3316  1501              16     795.6637066  715.11468  10.1%   5.9   26s
H 3738  1548                     769.3969501  717.92788  6.69%   6.0   26s

Cutting planes:
  Gomory: 4
  MIR: 1
  Inf proof: 1
  Zero half: 2
  Lazy constraints: 26

Explored 6037 nodes (44070 simplex iterations) in 27.50 seconds
Thread count was 12 (of 12 available processors)

Solution count 7: 769.397 795.664 799.326 ... 1024.06

Optimal solution found (tolerance 1.00e-04)
Best objective 7.693969501320e+02, best bound 7.693969501320e+02, gap 0.0000%

User-callback calls 13220, time in user-callback 25.97 sec
/projects/academic/josewalt/caigao/RRARP_BD/BendersDecomp/ret/model_outs/n_17_m_8_algo_4.out
 =====>>>>> Solution is written to file in <../ret/model_outs> !!!
===>> All Done!
